



9 9
5 16 8 15 0 3 1 5 7 5 6 1 2 4 4 6 3 7
8 16 7 8 3 6 6 16 5 18 1 1 4 11 0 11 2 3
0 3 4 18 2 5 7 1 8 15 6 18 3 8 5 4 1 18
1 7 3 10 0 11 8 14 6 7 4 7 5 17 2 17 7 19
8 13 4 10 7 1 0 17 2 10 1 17 3 16 6 11 5 5
1 15 4 15 6 4 0 17 5 15 2 16 7 8 8 15 3 14
1 16 4 19 6 15 8 13 2 6 7 13 5 13 0 13 3 8
4 8 2 12 0 13 3 19 5 7 1 17 6 6 7 3 8 2
3 12 0 6 8 10 4 12 2 2 1 19 6 1 7 8 5 1
